; benchmark generated from python API
(set-info :status unknown)
(declare-fun Y () (_ BitVec 16))
(declare-fun X () (_ BitVec 16))
(assert
 (let ((?x64 (concat (ite (bvslt Y (_ bv0 16)) (_ bv1766847064778384329583297500742918515827483896875618958121606201292619775 240) (_ bv0 240)) Y)))
 (let (($x76 (= ?x64 (_ bv0 256))))
 (let ((?x74 (concat (ite (bvslt X (_ bv0 16)) (_ bv1766847064778384329583297500742918515827483896875618958121606201292619775 240) (_ bv0 240)) X)))
 (let ((?x73 (ite (bvsgt ?x64 (_ bv0 256)) (_ bv1 256) (_ bv0 256))))
 (let ((?x25 (ite (bvslt ?x74 (_ bv0 256)) (_ bv1 256) (_ bv0 256))))
 (let ((?x42 (bvand (bvand ?x25 ?x73) (ite (bvslt ?x74 (ite $x76 (_ bv0 256) (bvsdiv (_ bv115792089237316195423570985008687907853269984665640564039457584007913129607168 256) ?x64))) (_ bv1 256) (_ bv0 256)))))
 (let ((?x110 (ite (bvslt ?x64 (ite (= ?x74 (_ bv0 256)) (_ bv0 256) (bvsdiv (_ bv115792089237316195423570985008687907853269984665640564039457584007913129607168 256) ?x74))) (_ bv1 256) (_ bv0 256))))
 (let ((?x30 (ite (bvslt ?x64 (_ bv0 256)) (_ bv1 256) (_ bv0 256))))
 (let ((?x69 (ite (bvsgt ?x74 (_ bv0 256)) (_ bv1 256) (_ bv0 256))))
 (let ((?x102 (bvand (bvand ?x69 ?x30) ?x110)))
 (let (($x113 (or (and (distinct ?x102 (_ bv0 256)) true) (and (distinct ?x42 (_ bv0 256)) true))))
 (let (($x7 (bvsmul_noudfl X Y)))
 (let (($x8 (not $x7)))
 (and (distinct $x8 $x113) true)))))))))))))))
(check-sat)
